data/CVRPLIB/Vrp-Set-XML100/instances/XML100_1315_27.vrp
NAME : XML100_1315_27
COMMENT : Generated by Queiroga, Sadykov, Uchoa, and Vidal (2021)
TYPE : CVRP
DIMENSION : 101
EDGE_WEIGHT_TYPE : EUC_2D
CAPACITY : 20
NODE_COORD_SECTION
1    940  146 
2    639  18  
3    946  848 
4    616  925 
5    502  829 
6    823  799 
7    931  77  
8    560  215 
9    794  991 
10   560  730 
11   605  804 
12   539  800 
13   978  227 
14   496  835 
15   131  98  
16   753  962 
17   586  661 
18   865  989 
19   198  873 
20   482  724 
21   795  493 
22   226  759 
23   798  988 
24   276  805 
25   615  247 
26   609  735 
27   311  694 
28   559  767 
29   124  168 
30   335  797 
31   306  457 
32   793  950 
33   447  551 
34   615  934 
35   415  652 
36   505  745 
37   418  839 
38   473  331 
39   530  792 
40   399  708 
41   624  435 
42   434  417 
43   400  854 
44   316  623 
45   573  973 
46   962  729 
47   523  883 
48   805  899 
49   140  628 
50   945  938 
51   518  865 
52   14   302 
53   878  893 
54   549  803 
55   400  193 
56   736  859 
57   585  975 
58   659  775 
59   77   373 
60   325  30  
61   914  57  
62   323  768 
63   572  905 
64   265  481 
65   116  845 
66   129  760 
67   811  900 
68   889  850 
69   757  924 
70   213  477 
71   655  902 
72   482  780 
73   634  881 
74   284  589 
75   587  519 
76   424  952 
77   801  940 
78   428  146 
79   475  775 
80   506  644 
81   466  808 
82   916  27  
83   905  135 
84   810  392 
85   720  678 
86   658  836 
87   724  299 
88   493  773 
89   460  861 
90   319  355 
91   590  790 
92   983  548 
93   408  830 
94   452  838 
95   363  73  
96   449  744 
97   766  989 
98   224  619 
99   211  182 
100  923  802 
101  882  897 
DEMAND_SECTION
1    0   
2    1   
3    1   
4    1   
5    1   
6    1   
7    1   
8    1   
9    1   
10   1   
11   1   
12   1   
13   1   
14   1   
15   1   
16   1   
17   1   
18   1   
19   1   
20   1   
21   1   
22   1   
23   1   
24   1   
25   1   
26   1   
27   1   
28   1   
29   1   
30   1   
31   1   
32   1   
33   1   
34   1   
35   1   
36   1   
37   1   
38   1   
39   1   
40   1   
41   1   
42   1   
43   1   
44   1   
45   1   
46   1   
47   1   
48   1   
49   1   
50   1   
51   1   
52   1   
53   1   
54   1   
55   1   
56   1   
57   1   
58   1   
59   1   
60   1   
61   1   
62   1   
63   1   
64   1   
65   1   
66   1   
67   1   
68   1   
69   1   
70   1   
71   1   
72   1   
73   1   
74   1   
75   1   
76   1   
77   1   
78   1   
79   1   
80   1   
81   1   
82   1   
83   1   
84   1   
85   1   
86   1   
87   1   
88   1   
89   1   
90   1   
91   1   
92   1   
93   1   
94   1   
95   1   
96   1   
97   1   
98   1   
99   1   
100  1   
101  1   
DEPOT_SECTION
1
-1
EOF
