data/CVRPLIB/Vrp-Set-XML100/solutions/XML100_1315_27.sol
Route #1: 5 55 47 66 76 31 68 15 96 8 22 17 49 100 52 67 2 99 45 91
Route #2: 86 40 74 32 34 39 26 61 29 23 21 18 64 65 48 97 73 43 41 37
Route #3: 82 24 7 77 54 89 30 63 69 58 51 28 14 98 59 94 1 81 60 6
Route #4: 79 19 95 35 87 71 78 80 93 36 92 42 75 88 13 4 38 27 9 16
Route #5: 83 25 10 90 53 11 50 46 62 44 56 33 3 70 72 85 57 84 20 12
Cost 11400
